Route #1: 17 5 12 3 43 33 20 40
Route #2: 18 23 11 8 13
Route #3: 6 21 34 37 41 4 32
Route #4: 9 10 38 22 30 42
Route #5: 16 29 19 7
Route #6: 36 26 14 24 39 2 25
Route #7: 28 27 35 31 15 1
cost 985.9694213867188